NAME          
ROWS
 N  OBJ
 L  c1
 L  c2
COLUMNS
    MARKER    'MARKER'                 'INTORG'
    x[1]      c1        243
    x[1]      c2        526
    x[1]      OBJ       -807
    x[2]      c1        933
    x[2]      c2        400
    x[2]      OBJ       -252
    x[3]      c1        753
    x[3]      c2        694
    x[3]      OBJ       -975
    x[4]      c1        477
    x[4]      c2        814
    x[4]      OBJ       -27
    x[5]      c1        621
    x[5]      c2        516
    x[5]      OBJ       -52
    x[6]      c1        240
    x[6]      c2        77
    x[6]      OBJ       -992
    x[7]      c1        263
    x[7]      c2        563
    x[7]      OBJ       -442
    x[8]      c1        15
    x[8]      c2        881
    x[8]      OBJ       -209
    x[9]      c1        690
    x[9]      c2        635
    x[9]      OBJ       -832
    x[10]     c1        912
    x[10]     c2        457
    x[10]     OBJ       -12
RHS
    rhs       c1        2574
    rhs       c2        2782
RANGES
BOUNDS
 LO bounds    x[1]      0
 PL bounds    x[1]
 LO bounds    x[2]      0
 PL bounds    x[2]
 LO bounds    x[3]      0
 PL bounds    x[3]
 LO bounds    x[4]      0
 PL bounds    x[4]
 LO bounds    x[5]      0
 PL bounds    x[5]
 LO bounds    x[6]      0
 PL bounds    x[6]
 LO bounds    x[7]      0
 PL bounds    x[7]
 LO bounds    x[8]      0
 PL bounds    x[8]
 LO bounds    x[9]      0
 PL bounds    x[9]
 LO bounds    x[10]     0
 PL bounds    x[10]
ENDATA
